10
1 0 2
2 0 3
2 1 8
3 0 9
3 1 8
3 2 6
4 0 8
4 1 1
4 2 2
4 3 3
5 0 9
5 1 5
5 4 2
6 0 5
6 2 8
6 3 3
6 4 4
6 5 5
7 0 5
7 1 5
7 2 8
7 3 2
7 4 6
7 5 2
7 6 5
8 0 7
8 1 7
8 2 4
8 3 1
8 4 7
8 5 2
8 6 10
8 7 3
9 0 6
9 1 10
9 2 2
9 3 10
9 4 1
9 5 3
9 6 4
